Minimize
  - 14 y_0 - 11 y_1 - 26 y_2 - 20 y_3 - 7 y_4 - 21 y_5 - 13 y_6 - 8 y_7
   - 21 y_8 - 8 y_9 - 23 y_10 - 18 y_11 - 11 y_12 - 19 y_13 - 15 y_14
   - 2 y_15 - 6 y_16 - 13 y_17 - 12 y_18 - 14 y_19 - 18 y_20 - 22 y_21
   - 7 y_22 - 12 y_23 - 17 y_24 - 20 y_25 - 24 y_26 - 24 y_27 - 9 y_28
   - 16 y_29 - 13 y_30 - 10 y_31 - 20 y_32 - 15 y_33 - 17 y_34 - 15 y_35
   - 14 y_36 - 18 y_37 - 23 y_38 - 14 y_39 - 7 y_40 - 14 y_41 - 18 y_42
   - 11 y_43 - 18 y_44 - 10 y_45 - 18 y_46 - 17 y_47 - 19 y_48 - 10 y_49
   - 18 y_50 - 14 y_51 - 14 y_52 - 5 y_54 - 13 y_55 - 14 y_56 - 9 y_57
   - 11 y_58 - 17 y_59 - 12 y_60 - y_61 - 21 y_62 - 9 y_63 - 2 y_64
   - 18 y_65 - 20 y_66 - 16 y_67 - 24 y_68 - 14 y_69 - 6 y_70 - 11 y_71
   - 6 y_72 - 22 y_73 - 19 y_74 - 9 y_75 - 16 y_76 - 19 y_77 - 24 y_78
   - 18 y_79 - 11 y_80 - 22 y_81 - 12 y_82 - 13 y_83 - 11 y_84 - 15 y_85
   - 5 y_86 - 16 y_87 - 21 y_88 - 18 y_89 - 5 y_90 - 27 y_91 - 10 y_92
   - 16 y_93 - 4 y_94 - 13 y_95 - 17 y_96 - 17 y_97 - 13 y_98 - 12 y_99
   + 1432 Constant
Subject To
 c_0: y_54 = 1
 c_1_0: y_0 + y_14 + y_51 + y_52 + y_55 + y_76 + y_95 + y_98 >= 1
 c_1_1: y_1 + y_12 + y_23 + y_71 + y_98 >= 1
 c_1_2: y_2 + y_91 >= 1
 c_1_3: y_3 + y_42 + y_48 + y_66 + y_74 >= 1
 c_1_4: y_4 + y_16 + y_40 + y_90 >= 1
 c_1_5: y_5 + y_62 >= 1
 c_1_6: y_6 >= 1
 c_1_7: y_7 + y_45 >= 1
 c_1_8: y_8 + y_21 + y_38 + y_81 >= 1
 c_1_9: y_9 + y_28 + y_40 + y_75 + y_92 >= 1
 c_1_10: y_10 + y_26 + y_27 + y_78 >= 1
 c_1_11: y_11 + y_37 + y_59 + y_77 + y_79 + y_89 + y_97 >= 1
 c_1_12: y_1 + y_12 + y_23 + y_55 + y_71 + y_95 + y_98 >= 1
 c_1_13: y_13 + y_32 >= 1
 c_1_14: y_0 + y_14 + y_52 + y_76 >= 1
 c_1_15: y_15 + y_64 + y_94 >= 1
 c_1_16: y_4 + y_16 + y_40 + y_70 + y_90 >= 1
 c_1_17: y_17 + y_30 + y_36 + y_69 + y_99 >= 1
 c_1_18: y_18 + y_56 + y_58 + y_84 >= 1
 c_1_19: y_19 + y_35 + y_85 + y_93 >= 1
 c_1_20: y_20 + y_44 + y_89 + y_97 >= 1
 c_1_21: y_8 + y_21 + y_38 + y_73 >= 1
 c_1_22: y_22 + y_57 >= 1
 c_1_23: y_1 + y_12 + y_23 + y_52 + y_55 + y_71 + y_95 + y_98 >= 1
 c_1_24: y_24 + y_47 + y_96 >= 1
 c_1_25: y_25 + y_32 + y_73 >= 1
 c_1_26: y_10 + y_26 + y_27 + y_78 >= 1
 c_1_27: y_10 + y_26 + y_27 + y_68 + y_78 >= 1
 c_1_28: y_9 + y_28 + y_75 + y_92 >= 1
 c_1_29: y_29 + y_50 + y_67 >= 1
 c_1_30: y_17 + y_30 + y_36 + y_39 + y_69 + y_80 + y_83 + y_99 >= 1
 c_1_31: y_31 + y_49 + y_80 + y_99 >= 1
 c_1_32: y_13 + y_25 + y_32 >= 1
 c_1_33: y_33 + y_41 + y_56 >= 1
 c_1_34: y_34 + y_96 >= 1
 c_1_35: y_19 + y_35 + y_93 >= 1
 c_1_36: y_17 + y_30 + y_36 + y_39 + y_69 + y_83 + y_99 >= 1
 c_1_37: y_11 + y_37 + y_59 + y_77 + y_79 + y_89 + y_97 >= 1
 c_1_38: y_8 + y_21 + y_38 + y_81 >= 1
 c_1_39: y_30 + y_36 + y_39 + y_69 + y_83 + y_87 >= 1
 c_1_40: y_4 + y_9 + y_16 + y_40 + y_90 >= 1
 c_1_41: y_33 + y_41 + y_56 >= 1
 c_1_42: y_3 + y_42 + y_47 + y_48 + y_74 >= 1
 c_1_43: y_43 + y_45 + y_58 + y_84 >= 1
 c_1_44: y_20 + y_44 + y_89 >= 1
 c_1_45: y_7 + y_43 + y_45 >= 1
 c_1_46: y_46 + y_65 + y_87 >= 1
 c_1_47: y_24 + y_42 + y_47 + y_96 >= 1
 c_1_48: y_3 + y_42 + y_48 + y_62 + y_66 + y_74 >= 1
 c_1_49: y_31 + y_49 + y_80 >= 1
 c_1_50: y_29 + y_50 >= 1
 c_1_51: y_0 + y_51 + y_98 >= 1
 c_1_52: y_0 + y_14 + y_23 + y_52 + y_55 + y_95 + y_98 >= 1
 c_1_53: y_53 + y_61 >= 1
 c_1_54: y_54 + y_86 + y_94 >= 1
 c_1_55: y_0 + y_12 + y_23 + y_52 + y_55 + y_71 + y_95 + y_98 >= 1
 c_1_56: y_18 + y_33 + y_41 + y_56 >= 1
 c_1_57: y_22 + y_57 + y_63 >= 1
 c_1_58: y_18 + y_43 + y_58 + y_84 + y_92 >= 1
 c_1_59: y_11 + y_37 + y_59 + y_85 + y_89 + y_93 + y_97 >= 1
 c_1_60: y_60 >= 1
 c_1_61: y_53 + y_61 + y_64 >= 1
 c_1_62: y_5 + y_48 + y_62 + y_66 >= 1
 c_1_63: y_57 + y_63 + y_71 >= 1
 c_1_64: y_15 + y_61 + y_64 + y_94 >= 1
 c_1_65: y_46 + y_65 >= 1
 c_1_66: y_3 + y_48 + y_62 + y_66 + y_74 >= 1
 c_1_67: y_29 + y_67 >= 1
 c_1_68: y_27 + y_68 + y_78 >= 1
 c_1_69: y_17 + y_30 + y_36 + y_39 + y_69 + y_83 + y_87 + y_99 >= 1
 c_1_70: y_16 + y_70 + y_86 >= 1
 c_1_71: y_1 + y_12 + y_23 + y_55 + y_63 + y_71 + y_95 + y_98 >= 1
 c_1_72: y_72 + y_94 >= 1
 c_1_73: y_21 + y_25 + y_73 >= 1
 c_1_74: y_3 + y_42 + y_48 + y_66 + y_74 >= 1
 c_1_75: y_9 + y_28 + y_75 + y_92 >= 1
 c_1_76: y_0 + y_14 + y_76 >= 1
 c_1_77: y_11 + y_37 + y_77 + y_79 + y_89 >= 1
 c_1_78: y_10 + y_26 + y_27 + y_68 + y_78 >= 1
 c_1_79: y_11 + y_37 + y_77 + y_79 >= 1
 c_1_80: y_30 + y_31 + y_49 + y_80 + y_83 + y_99 >= 1
 c_1_81: y_8 + y_38 + y_81 + y_88 >= 1
 c_1_82: y_82 >= 1
 c_1_83: y_30 + y_36 + y_39 + y_69 + y_80 + y_83 + y_99 >= 1
 c_1_84: y_18 + y_43 + y_58 + y_84 >= 1
 c_1_85: y_19 + y_59 + y_85 + y_93 + y_97 >= 1
 c_1_86: y_54 + y_70 + y_86 + y_94 >= 1
 c_1_87: y_39 + y_46 + y_69 + y_87 >= 1
 c_1_88: y_81 + y_88 >= 1
 c_1_89: y_11 + y_20 + y_37 + y_44 + y_59 + y_77 + y_89 + y_97 >= 1
 c_1_90: y_4 + y_16 + y_40 + y_90 >= 1
 c_1_91: y_2 + y_91 >= 1
 c_1_92: y_9 + y_28 + y_58 + y_75 + y_92 >= 1
 c_1_93: y_19 + y_35 + y_59 + y_85 + y_93 >= 1
 c_1_94: y_15 + y_54 + y_64 + y_72 + y_86 + y_94 >= 1
 c_1_95: y_0 + y_12 + y_23 + y_52 + y_55 + y_71 + y_95 + y_98 >= 1
 c_1_96: y_24 + y_34 + y_47 + y_96 >= 1
 c_1_97: y_11 + y_20 + y_37 + y_59 + y_85 + y_89 + y_97 >= 1
 c_1_98: y_0 + y_1 + y_12 + y_23 + y_51 + y_52 + y_55 + y_71 + y_95 + y_98
   >= 1
 c_1_99: y_17 + y_30 + y_31 + y_36 + y_69 + y_80 + y_83 + y_99 >= 1
Bounds
 Constant = 1
Binaries
 y_0 y_1 y_2 y_3 y_4 y_5 y_6 y_7 y_8 y_9 y_10 y_11 y_12 y_13 y_14 y_15 y_16
 y_17 y_18 y_19 y_20 y_21 y_22 y_23 y_24 y_25 y_26 y_27 y_28 y_29 y_30 y_31
 y_32 y_33 y_34 y_35 y_36 y_37 y_38 y_39 y_40 y_41 y_42 y_43 y_44 y_45 y_46
 y_47 y_48 y_49 y_50 y_51 y_52 y_53 y_54 y_55 y_56 y_57 y_58 y_59 y_60 y_61
 y_62 y_63 y_64 y_65 y_66 y_67 y_68 y_69 y_70 y_71 y_72 y_73 y_74 y_75 y_76
 y_77 y_78 y_79 y_80 y_81 y_82 y_83 y_84 y_85 y_86 y_87 y_88 y_89 y_90 y_91
 y_92 y_93 y_94 y_95 y_96 y_97 y_98 y_99
End
